instances/knapsack/discrete/knapsack_90_2.lp
\ Model knapsack_90_2
\ LP format - for model browsing. Use MPS format to capture full model detail.
\ Signature: 0xc29ff4c0dcb79651
Minimize
  - 52 x[0] - 48 x[1] - 18 x[2] - 46 x[3] - 47 x[4] - 71 x[5] - 31 x[6]
   - 77 x[7] - 68 x[8] - 92 x[9] - 73 x[10] - 53 x[11] - 69 x[12]
   - 48 x[13] - 89 x[14] - 14 x[15] - 76 x[16] - 96 x[17] - 8 x[18]
   - 7 x[19] - 75 x[20] - 29 x[21] - 90 x[22] - 2 x[23] - 23 x[24]
   - 56 x[25] - 94 x[26] - 53 x[27] - 8 x[28] - 98 x[29] - 39 x[30]
   - 94 x[31] - 6 x[32] - 29 x[33] - 29 x[34] - 11 x[35] - 95 x[36] - x[37]
   - 68 x[38] - 9 x[39] - 82 x[40] - 99 x[41] - 35 x[42] - 61 x[43]
   - 24 x[44] - 77 x[45] - 66 x[46] - 26 x[47] - 70 x[48] - 7 x[49]
   - 53 x[50] - 52 x[51] - 37 x[52] - 75 x[53] - 54 x[54] - 4 x[55]
   - 48 x[56] - 14 x[57] - 94 x[58] - 41 x[59] - 54 x[60] - 16 x[61]
   - 87 x[62] - 63 x[63] - 56 x[64] - 79 x[65] - 27 x[66] - 27 x[67]
   - 90 x[68] - 43 x[69] - 83 x[70] - 13 x[71] - 43 x[72] - 11 x[73]
   - 80 x[74] - 36 x[75] - 4 x[76] - 43 x[77] - 78 x[78] - 61 x[79]
   - 37 x[80] - 32 x[81] - 51 x[82] - 100 x[83] - 31 x[84] - 62 x[85]
   - 88 x[86] - 21 x[87] - 2 x[88] - 56 x[89]
Subject To
 primal_upper: 55 x[0] + 68 x[1] + 30 x[2] + 51 x[3] + 8 x[4] + 37 x[5]
   + 13 x[6] + 47 x[7] + 53 x[8] + 10 x[9] + 15 x[10] + 75 x[11] + 92 x[12]
   + 40 x[13] + 20 x[14] + 36 x[15] + 93 x[16] + 8 x[17] + 89 x[18]
   + 46 x[19] + 25 x[20] + 27 x[21] + 4 x[22] + 2 x[23] + 100 x[24]
   + 92 x[25] + 38 x[26] + 11 x[27] + 29 x[28] + 71 x[29] + 61 x[30]
   + 91 x[31] + 11 x[32] + 69 x[33] + 48 x[34] + 5 x[35] + 52 x[36]
   + 96 x[37] + 80 x[38] + 6 x[39] + 59 x[40] + 57 x[41] + 86 x[42]
   + 29 x[43] + 79 x[44] + 62 x[45] + 21 x[46] + 65 x[47] + 31 x[48]
   + 48 x[49] + 90 x[50] + 88 x[51] + 73 x[52] + 100 x[53] + 28 x[54]
   + 87 x[55] + 13 x[56] + 14 x[57] + 80 x[58] + 74 x[59] + 32 x[60]
   + 2 x[61] + 59 x[62] + 22 x[63] + 31 x[64] + 20 x[65] + 4 x[66]
   + 18 x[67] + 16 x[68] + 57 x[69] + 45 x[70] + 93 x[71] + 10 x[72]
   + 3 x[73] + 35 x[74] + 92 x[75] + 50 x[76] + 87 x[77] + 32 x[78]
   + 66 x[79] + 45 x[80] + 33 x[81] + 14 x[82] + 9 x[83] + 49 x[84]
   + 21 x[85] + 23 x[86] + 24 x[87] + 42 x[88] + 87 x[89] + 5.5 r[0]
   + 6.8 r[1] + 3 r[2] + 5.1 r[3] + 0.8 r[4] + 3.7 r[5] + 1.3 r[6]
   + 4.7 r[7] + 5.3 r[8] + r[9] + 1.5 r[10] + 7.5 r[11] + 9.2 r[12]
   + 4 r[13] + 2 r[14] + 3.6 r[15] + 9.3 r[16] + 0.8 r[17] + 8.9 r[18]
   + 4.6 r[19] + 2.5 r[20] + 2.7 r[21] + 0.4 r[22] + 0.2 r[23] + 10 r[24]
   + 9.2 r[25] + 3.8 r[26] + 1.1 r[27] + 2.9 r[28] + 7.1 r[29] + 6.1 r[30]
   + 9.1 r[31] + 1.1 r[32] + 6.9 r[33] + 4.8 r[34] + 0.5 r[35] + 5.2 r[36]
   + 9.6 r[37] + 8 r[38] + 0.6 r[39] + 5.9 r[40] + 5.7 r[41] + 8.6 r[42]
   + 2.9 r[43] + 7.9 r[44] + 6.2 r[45] + 2.1 r[46] + 6.5 r[47] + 3.1 r[48]
   + 4.8 r[49] + 9 r[50] + 8.8 r[51] + 7.3 r[52] + 10 r[53] + 2.8 r[54]
   + 8.7 r[55] + 1.3 r[56] + 1.4 r[57] + 8 r[58] + 7.4 r[59] + 3.2 r[60]
   + 0.2 r[61] + 5.9 r[62] + 2.2 r[63] + 3.1 r[64] + 2 r[65] + 0.4 r[66]
   + 1.8 r[67] + 1.6 r[68] + 5.7 r[69] + 4.5 r[70] + 9.3 r[71] + r[72]
   + 0.3 r[73] + 3.5 r[74] + 9.2 r[75] + 5 r[76] + 8.7 r[77] + 3.2 r[78]
   + 6.6 r[79] + 4.5 r[80] + 3.3 r[81] + 1.4 r[82] + 0.9 r[83] + 4.9 r[84]
   + 2.1 r[85] + 2.3 r[86] + 2.4 r[87] + 4.2 r[88] + 8.7 r[89] <= 391
 primal_lower: 0.9557828908821323 x[0] + 2.853467450274859 x[1]
   + 3.570704446796623 x[2] + 3.500846986382617 x[3]
   + 1.332109290506828 x[4] + 0.5577335217158517 x[5]
   + 4.718509738651257 x[6] + 2.935106240352607 x[7]
   + 2.420450460578898 x[8] + 4.721946185610868 x[9]
   + 5.227487569980852 x[10] + 3.531324843389309 x[11]
   + 2.111307056182191 x[12] + 1.743862430934429 x[13]
   + 0.4494524029048475 x[14] + 3.863120612602542 x[15]
   + 5.003561990845224 x[16] + 4.296542489153621 x[17]
   + 0.5301763840102325 x[18] + 3.446778510942496 x[19]
   + 1.913506706312956 x[20] + 5.039287535607734 x[21]
   + 1.142638253447582 x[22] + 0.0519062892916272 x[23]
   + 3.80849881224958 x[24] + 0.7414304073885335 x[25]
   + 0.3139628599050752 x[26] + 1.009678788955452 x[27]
   + 4.274085961716246 x[28] + 0.9465030898867367 x[29]
   + 3.490833585138784 x[30] + 5.236186320587629 x[31]
   + 0.6039269383513091 x[32] + 0.3498130032683644 x[33]
   + 1.703642487886658 x[34] + 3.220758086846619 x[35]
   + 0.1597511879825332 x[36] + 0.8431878286444601 x[37]
   + 3.38803912631999 x[38] + 3.78797958019196 x[39]
   + 3.076477423323806 x[40] + 1.945147005853496 x[41]
   + 5.057300147541916 x[42] + 3.008259626840161 x[43]
   + 4.929727094239517 x[44] + 0.8948129024263191 x[45]
   + 4.055991241141456 x[46] + 3.285914580139409 x[47]
   + 2.457113696296894 x[48] + 1.595945208219851 x[49]
   + 2.446354317058218 x[50] + 4.124142212777858 x[51]
   + 4.012606699094977 x[52] + 0.8428275549083335 x[53]
   + 3.147233060372802 x[54] + 1.679662717901914 x[55]
   + 4.434011351508646 x[56] + 0.7627323447783271 x[57]
   + 2.11450588531803 x[58] + 3.67822571208952 x[59]
   + 2.380556676556513 x[60] + 4.335177963271707 x[61]
   + 3.685959464349705 x[62] + 1.663290758760832 x[63]
   + 5.241295966072881 x[64] + 3.661756744512319 x[65]
   + 0.5113197093854254 x[66] + 3.230798123524401 x[67]
   + 3.115203841448866 x[68] + 5.127482579796725 x[69]
   + 0.9778487376633992 x[70] + 2.27814744772388 x[71]
   + 3.316365192413708 x[72] + 0.501519024027111 x[73]
   + 4.426723023944419 x[74] + 3.356100696963349 x[75]
   + 3.838862271729477 x[76] + 0.5288879319073173 x[77]
   + 3.55946381853644 x[78] + 0.1003905034479485 x[79]
   + 1.93494114475462 x[80] + 2.623686029882804 x[81]
   + 0.7970630044666021 x[82] + 2.373062566103282 x[83]
   + 1.134530799474084 x[84] + 4.267316882492336 x[85]
   + 1.240035724710961 x[86] + 0.0437539703884386 x[87]
   + 3.727979456623091 x[88] + 2.402577032875686 x[89] + 75 u[0] + 24 u[1]
   + 38 u[2] + 55 u[3] + 40 u[4] + 65 u[5] + 97 u[6] + 99 u[7] + 37 u[8]
   + 66 u[9] + 79 u[10] + 35 u[11] + 72 u[12] + 56 u[13] + 84 u[14]
   + 68 u[15] + 73 u[16] + 16 u[17] + 97 u[18] + 46 u[19] + 93 u[20]
   + 31 u[21] + 28 u[22] + 82 u[23] + 60 u[24] + 44 u[25] + 86 u[26]
   + 31 u[27] + 53 u[28] + 11 u[29] + 61 u[30] + 83 u[31] + 47 u[32]
   + 61 u[33] + 52 u[34] + 49 u[35] + 96 u[36] + 68 u[37] + 48 u[38]
   + 42 u[39] + 95 u[40] + 77 u[41] + 98 u[42] + 45 u[43] + 15 u[44]
   + 62 u[45] + 45 u[46] + 21 u[47] + 23 u[48] + 28 u[49] + 6 u[50]
   + 96 u[51] + 61 u[52] + 12 u[53] + 72 u[54] + 79 u[55] + 37 u[56]
   + 66 u[57] + 44 u[58] + 10 u[59] + 12 u[60] + 86 u[61] + 31 u[62]
   + 94 u[63] + 91 u[64] + 92 u[65] + 36 u[66] + 2 u[67] + 20 u[68]
   + 89 u[69] + 61 u[70] + 69 u[71] + 38 u[72] + 67 u[73] + 59 u[74]
   + 44 u[75] + 38 u[76] + 87 u[77] + 100 u[78] + 42 u[79] + 69 u[80]
   + 5 u[81] + 46 u[82] + 45 u[83] + 93 u[84] + 29 u[85] + 95 u[86]
   + 56 u[87] + 34 u[88] + 75 u[89] <= 50325
 mccormick1[0]: - u[0] + r[0] <= 0
 mccormick1[1]: - u[1] + r[1] <= 0
 mccormick1[2]: - u[2] + r[2] <= 0
 mccormick1[3]: - u[3] + r[3] <= 0
 mccormick1[4]: - u[4] + r[4] <= 0
 mccormick1[5]: - u[5] + r[5] <= 0
 mccormick1[6]: - u[6] + r[6] <= 0
 mccormick1[7]: - u[7] + r[7] <= 0
 mccormick1[8]: - u[8] + r[8] <= 0
 mccormick1[9]: - u[9] + r[9] <= 0
 mccormick1[10]: - u[10] + r[10] <= 0
 mccormick1[11]: - u[11] + r[11] <= 0
 mccormick1[12]: - u[12] + r[12] <= 0
 mccormick1[13]: - u[13] + r[13] <= 0
 mccormick1[14]: - u[14] + r[14] <= 0
 mccormick1[15]: - u[15] + r[15] <= 0
 mccormick1[16]: - u[16] + r[16] <= 0
 mccormick1[17]: - u[17] + r[17] <= 0
 mccormick1[18]: - u[18] + r[18] <= 0
 mccormick1[19]: - u[19] + r[19] <= 0
 mccormick1[20]: - u[20] + r[20] <= 0
 mccormick1[21]: - u[21] + r[21] <= 0
 mccormick1[22]: - u[22] + r[22] <= 0
 mccormick1[23]: - u[23] + r[23] <= 0
 mccormick1[24]: - u[24] + r[24] <= 0
 mccormick1[25]: - u[25] + r[25] <= 0
 mccormick1[26]: - u[26] + r[26] <= 0
 mccormick1[27]: - u[27] + r[27] <= 0
 mccormick1[28]: - u[28] + r[28] <= 0
 mccormick1[29]: - u[29] + r[29] <= 0
 mccormick1[30]: - u[30] + r[30] <= 0
 mccormick1[31]: - u[31] + r[31] <= 0
 mccormick1[32]: - u[32] + r[32] <= 0
 mccormick1[33]: - u[33] + r[33] <= 0
 mccormick1[34]: - u[34] + r[34] <= 0
 mccormick1[35]: - u[35] + r[35] <= 0
 mccormick1[36]: - u[36] + r[36] <= 0
 mccormick1[37]: - u[37] + r[37] <= 0
 mccormick1[38]: - u[38] + r[38] <= 0
 mccormick1[39]: - u[39] + r[39] <= 0
 mccormick1[40]: - u[40] + r[40] <= 0
 mccormick1[41]: - u[41] + r[41] <= 0
 mccormick1[42]: - u[42] + r[42] <= 0
 mccormick1[43]: - u[43] + r[43] <= 0
 mccormick1[44]: - u[44] + r[44] <= 0
 mccormick1[45]: - u[45] + r[45] <= 0
 mccormick1[46]: - u[46] + r[46] <= 0
 mccormick1[47]: - u[47] + r[47] <= 0
 mccormick1[48]: - u[48] + r[48] <= 0
 mccormick1[49]: - u[49] + r[49] <= 0
 mccormick1[50]: - u[50] + r[50] <= 0
 mccormick1[51]: - u[51] + r[51] <= 0
 mccormick1[52]: - u[52] + r[52] <= 0
 mccormick1[53]: - u[53] + r[53] <= 0
 mccormick1[54]: - u[54] + r[54] <= 0
 mccormick1[55]: - u[55] + r[55] <= 0
 mccormick1[56]: - u[56] + r[56] <= 0
 mccormick1[57]: - u[57] + r[57] <= 0
 mccormick1[58]: - u[58] + r[58] <= 0
 mccormick1[59]: - u[59] + r[59] <= 0
 mccormick1[60]: - u[60] + r[60] <= 0
 mccormick1[61]: - u[61] + r[61] <= 0
 mccormick1[62]: - u[62] + r[62] <= 0
 mccormick1[63]: - u[63] + r[63] <= 0
 mccormick1[64]: - u[64] + r[64] <= 0
 mccormick1[65]: - u[65] + r[65] <= 0
 mccormick1[66]: - u[66] + r[66] <= 0
 mccormick1[67]: - u[67] + r[67] <= 0
 mccormick1[68]: - u[68] + r[68] <= 0
 mccormick1[69]: - u[69] + r[69] <= 0
 mccormick1[70]: - u[70] + r[70] <= 0
 mccormick1[71]: - u[71] + r[71] <= 0
 mccormick1[72]: - u[72] + r[72] <= 0
 mccormick1[73]: - u[73] + r[73] <= 0
 mccormick1[74]: - u[74] + r[74] <= 0
 mccormick1[75]: - u[75] + r[75] <= 0
 mccormick1[76]: - u[76] + r[76] <= 0
 mccormick1[77]: - u[77] + r[77] <= 0
 mccormick1[78]: - u[78] + r[78] <= 0
 mccormick1[79]: - u[79] + r[79] <= 0
 mccormick1[80]: - u[80] + r[80] <= 0
 mccormick1[81]: - u[81] + r[81] <= 0
 mccormick1[82]: - u[82] + r[82] <= 0
 mccormick1[83]: - u[83] + r[83] <= 0
 mccormick1[84]: - u[84] + r[84] <= 0
 mccormick1[85]: - u[85] + r[85] <= 0
 mccormick1[86]: - u[86] + r[86] <= 0
 mccormick1[87]: - u[87] + r[87] <= 0
 mccormick1[88]: - u[88] + r[88] <= 0
 mccormick1[89]: - u[89] + r[89] <= 0
 mccormick2[0]: - x[0] + r[0] <= 0
 mccormick2[1]: - x[1] + r[1] <= 0
 mccormick2[2]: - x[2] + r[2] <= 0
 mccormick2[3]: - x[3] + r[3] <= 0
 mccormick2[4]: - x[4] + r[4] <= 0
 mccormick2[5]: - x[5] + r[5] <= 0
 mccormick2[6]: - x[6] + r[6] <= 0
 mccormick2[7]: - x[7] + r[7] <= 0
 mccormick2[8]: - x[8] + r[8] <= 0
 mccormick2[9]: - x[9] + r[9] <= 0
 mccormick2[10]: - x[10] + r[10] <= 0
 mccormick2[11]: - x[11] + r[11] <= 0
 mccormick2[12]: - x[12] + r[12] <= 0
 mccormick2[13]: - x[13] + r[13] <= 0
 mccormick2[14]: - x[14] + r[14] <= 0
 mccormick2[15]: - x[15] + r[15] <= 0
 mccormick2[16]: - x[16] + r[16] <= 0
 mccormick2[17]: - x[17] + r[17] <= 0
 mccormick2[18]: - x[18] + r[18] <= 0
 mccormick2[19]: - x[19] + r[19] <= 0
 mccormick2[20]: - x[20] + r[20] <= 0
 mccormick2[21]: - x[21] + r[21] <= 0
 mccormick2[22]: - x[22] + r[22] <= 0
 mccormick2[23]: - x[23] + r[23] <= 0
 mccormick2[24]: - x[24] + r[24] <= 0
 mccormick2[25]: - x[25] + r[25] <= 0
 mccormick2[26]: - x[26] + r[26] <= 0
 mccormick2[27]: - x[27] + r[27] <= 0
 mccormick2[28]: - x[28] + r[28] <= 0
 mccormick2[29]: - x[29] + r[29] <= 0
 mccormick2[30]: - x[30] + r[30] <= 0
 mccormick2[31]: - x[31] + r[31] <= 0
 mccormick2[32]: - x[32] + r[32] <= 0
 mccormick2[33]: - x[33] + r[33] <= 0
 mccormick2[34]: - x[34] + r[34] <= 0
 mccormick2[35]: - x[35] + r[35] <= 0
 mccormick2[36]: - x[36] + r[36] <= 0
 mccormick2[37]: - x[37] + r[37] <= 0
 mccormick2[38]: - x[38] + r[38] <= 0
 mccormick2[39]: - x[39] + r[39] <= 0
 mccormick2[40]: - x[40] + r[40] <= 0
 mccormick2[41]: - x[41] + r[41] <= 0
 mccormick2[42]: - x[42] + r[42] <= 0
 mccormick2[43]: - x[43] + r[43] <= 0
 mccormick2[44]: - x[44] + r[44] <= 0
 mccormick2[45]: - x[45] + r[45] <= 0
 mccormick2[46]: - x[46] + r[46] <= 0
 mccormick2[47]: - x[47] + r[47] <= 0
 mccormick2[48]: - x[48] + r[48] <= 0
 mccormick2[49]: - x[49] + r[49] <= 0
 mccormick2[50]: - x[50] + r[50] <= 0
 mccormick2[51]: - x[51] + r[51] <= 0
 mccormick2[52]: - x[52] + r[52] <= 0
 mccormick2[53]: - x[53] + r[53] <= 0
 mccormick2[54]: - x[54] + r[54] <= 0
 mccormick2[55]: - x[55] + r[55] <= 0
 mccormick2[56]: - x[56] + r[56] <= 0
 mccormick2[57]: - x[57] + r[57] <= 0
 mccormick2[58]: - x[58] + r[58] <= 0
 mccormick2[59]: - x[59] + r[59] <= 0
 mccormick2[60]: - x[60] + r[60] <= 0
 mccormick2[61]: - x[61] + r[61] <= 0
 mccormick2[62]: - x[62] + r[62] <= 0
 mccormick2[63]: - x[63] + r[63] <= 0
 mccormick2[64]: - x[64] + r[64] <= 0
 mccormick2[65]: - x[65] + r[65] <= 0
 mccormick2[66]: - x[66] + r[66] <= 0
 mccormick2[67]: - x[67] + r[67] <= 0
 mccormick2[68]: - x[68] + r[68] <= 0
 mccormick2[69]: - x[69] + r[69] <= 0
 mccormick2[70]: - x[70] + r[70] <= 0
 mccormick2[71]: - x[71] + r[71] <= 0
 mccormick2[72]: - x[72] + r[72] <= 0
 mccormick2[73]: - x[73] + r[73] <= 0
 mccormick2[74]: - x[74] + r[74] <= 0
 mccormick2[75]: - x[75] + r[75] <= 0
 mccormick2[76]: - x[76] + r[76] <= 0
 mccormick2[77]: - x[77] + r[77] <= 0
 mccormick2[78]: - x[78] + r[78] <= 0
 mccormick2[79]: - x[79] + r[79] <= 0
 mccormick2[80]: - x[80] + r[80] <= 0
 mccormick2[81]: - x[81] + r[81] <= 0
 mccormick2[82]: - x[82] + r[82] <= 0
 mccormick2[83]: - x[83] + r[83] <= 0
 mccormick2[84]: - x[84] + r[84] <= 0
 mccormick2[85]: - x[85] + r[85] <= 0
 mccormick2[86]: - x[86] + r[86] <= 0
 mccormick2[87]: - x[87] + r[87] <= 0
 mccormick2[88]: - x[88] + r[88] <= 0
 mccormick2[89]: - x[89] + r[89] <= 0
 mccormick3[0]: x[0] + u[0] - r[0] <= 1
 mccormick3[1]: x[1] + u[1] - r[1] <= 1
 mccormick3[2]: x[2] + u[2] - r[2] <= 1
 mccormick3[3]: x[3] + u[3] - r[3] <= 1
 mccormick3[4]: x[4] + u[4] - r[4] <= 1
 mccormick3[5]: x[5] + u[5] - r[5] <= 1
 mccormick3[6]: x[6] + u[6] - r[6] <= 1
 mccormick3[7]: x[7] + u[7] - r[7] <= 1
 mccormick3[8]: x[8] + u[8] - r[8] <= 1
 mccormick3[9]: x[9] + u[9] - r[9] <= 1
 mccormick3[10]: x[10] + u[10] - r[10] <= 1
 mccormick3[11]: x[11] + u[11] - r[11] <= 1
 mccormick3[12]: x[12] + u[12] - r[12] <= 1
 mccormick3[13]: x[13] + u[13] - r[13] <= 1
 mccormick3[14]: x[14] + u[14] - r[14] <= 1
 mccormick3[15]: x[15] + u[15] - r[15] <= 1
 mccormick3[16]: x[16] + u[16] - r[16] <= 1
 mccormick3[17]: x[17] + u[17] - r[17] <= 1
 mccormick3[18]: x[18] + u[18] - r[18] <= 1
 mccormick3[19]: x[19] + u[19] - r[19] <= 1
 mccormick3[20]: x[20] + u[20] - r[20] <= 1
 mccormick3[21]: x[21] + u[21] - r[21] <= 1
 mccormick3[22]: x[22] + u[22] - r[22] <= 1
 mccormick3[23]: x[23] + u[23] - r[23] <= 1
 mccormick3[24]: x[24] + u[24] - r[24] <= 1
 mccormick3[25]: x[25] + u[25] - r[25] <= 1
 mccormick3[26]: x[26] + u[26] - r[26] <= 1
 mccormick3[27]: x[27] + u[27] - r[27] <= 1
 mccormick3[28]: x[28] + u[28] - r[28] <= 1
 mccormick3[29]: x[29] + u[29] - r[29] <= 1
 mccormick3[30]: x[30] + u[30] - r[30] <= 1
 mccormick3[31]: x[31] + u[31] - r[31] <= 1
 mccormick3[32]: x[32] + u[32] - r[32] <= 1
 mccormick3[33]: x[33] + u[33] - r[33] <= 1
 mccormick3[34]: x[34] + u[34] - r[34] <= 1
 mccormick3[35]: x[35] + u[35] - r[35] <= 1
 mccormick3[36]: x[36] + u[36] - r[36] <= 1
 mccormick3[37]: x[37] + u[37] - r[37] <= 1
 mccormick3[38]: x[38] + u[38] - r[38] <= 1
 mccormick3[39]: x[39] + u[39] - r[39] <= 1
 mccormick3[40]: x[40] + u[40] - r[40] <= 1
 mccormick3[41]: x[41] + u[41] - r[41] <= 1
 mccormick3[42]: x[42] + u[42] - r[42] <= 1
 mccormick3[43]: x[43] + u[43] - r[43] <= 1
 mccormick3[44]: x[44] + u[44] - r[44] <= 1
 mccormick3[45]: x[45] + u[45] - r[45] <= 1
 mccormick3[46]: x[46] + u[46] - r[46] <= 1
 mccormick3[47]: x[47] + u[47] - r[47] <= 1
 mccormick3[48]: x[48] + u[48] - r[48] <= 1
 mccormick3[49]: x[49] + u[49] - r[49] <= 1
 mccormick3[50]: x[50] + u[50] - r[50] <= 1
 mccormick3[51]: x[51] + u[51] - r[51] <= 1
 mccormick3[52]: x[52] + u[52] - r[52] <= 1
 mccormick3[53]: x[53] + u[53] - r[53] <= 1
 mccormick3[54]: x[54] + u[54] - r[54] <= 1
 mccormick3[55]: x[55] + u[55] - r[55] <= 1
 mccormick3[56]: x[56] + u[56] - r[56] <= 1
 mccormick3[57]: x[57] + u[57] - r[57] <= 1
 mccormick3[58]: x[58] + u[58] - r[58] <= 1
 mccormick3[59]: x[59] + u[59] - r[59] <= 1
 mccormick3[60]: x[60] + u[60] - r[60] <= 1
 mccormick3[61]: x[61] + u[61] - r[61] <= 1
 mccormick3[62]: x[62] + u[62] - r[62] <= 1
 mccormick3[63]: x[63] + u[63] - r[63] <= 1
 mccormick3[64]: x[64] + u[64] - r[64] <= 1
 mccormick3[65]: x[65] + u[65] - r[65] <= 1
 mccormick3[66]: x[66] + u[66] - r[66] <= 1
 mccormick3[67]: x[67] + u[67] - r[67] <= 1
 mccormick3[68]: x[68] + u[68] - r[68] <= 1
 mccormick3[69]: x[69] + u[69] - r[69] <= 1
 mccormick3[70]: x[70] + u[70] - r[70] <= 1
 mccormick3[71]: x[71] + u[71] - r[71] <= 1
 mccormick3[72]: x[72] + u[72] - r[72] <= 1
 mccormick3[73]: x[73] + u[73] - r[73] <= 1
 mccormick3[74]: x[74] + u[74] - r[74] <= 1
 mccormick3[75]: x[75] + u[75] - r[75] <= 1
 mccormick3[76]: x[76] + u[76] - r[76] <= 1
 mccormick3[77]: x[77] + u[77] - r[77] <= 1
 mccormick3[78]: x[78] + u[78] - r[78] <= 1
 mccormick3[79]: x[79] + u[79] - r[79] <= 1
 mccormick3[80]: x[80] + u[80] - r[80] <= 1
 mccormick3[81]: x[81] + u[81] - r[81] <= 1
 mccormick3[82]: x[82] + u[82] - r[82] <= 1
 mccormick3[83]: x[83] + u[83] - r[83] <= 1
 mccormick3[84]: x[84] + u[84] - r[84] <= 1
 mccormick3[85]: x[85] + u[85] - r[85] <= 1
 mccormick3[86]: x[86] + u[86] - r[86] <= 1
 mccormick3[87]: x[87] + u[87] - r[87] <= 1
 mccormick3[88]: x[88] + u[88] - r[88] <= 1
 mccormick3[89]: x[89] + u[89] - r[89] <= 1
Bounds
Binaries
 x[0] x[1] x[2] x[3] x[4] x[5] x[6] x[7] x[8] x[9] x[10] x[11] x[12] x[13]
 x[14] x[15] x[16] x[17] x[18] x[19] x[20] x[21] x[22] x[23] x[24] x[25]
 x[26] x[27] x[28] x[29] x[30] x[31] x[32] x[33] x[34] x[35] x[36] x[37]
 x[38] x[39] x[40] x[41] x[42] x[43] x[44] x[45] x[46] x[47] x[48] x[49]
 x[50] x[51] x[52] x[53] x[54] x[55] x[56] x[57] x[58] x[59] x[60] x[61]
 x[62] x[63] x[64] x[65] x[66] x[67] x[68] x[69] x[70] x[71] x[72] x[73]
 x[74] x[75] x[76] x[77] x[78] x[79] x[80] x[81] x[82] x[83] x[84] x[85]
 x[86] x[87] x[88] x[89] u[0] u[1] u[2] u[3] u[4] u[5] u[6] u[7] u[8] u[9]
 u[10] u[11] u[12] u[13] u[14] u[15] u[16] u[17] u[18] u[19] u[20] u[21]
 u[22] u[23] u[24] u[25] u[26] u[27] u[28] u[29] u[30] u[31] u[32] u[33]
 u[34] u[35] u[36] u[37] u[38] u[39] u[40] u[41] u[42] u[43] u[44] u[45]
 u[46] u[47] u[48] u[49] u[50] u[51] u[52] u[53] u[54] u[55] u[56] u[57]
 u[58] u[59] u[60] u[61] u[62] u[63] u[64] u[65] u[66] u[67] u[68] u[69]
 u[70] u[71] u[72] u[73] u[74] u[75] u[76] u[77] u[78] u[79] u[80] u[81]
 u[82] u[83] u[84] u[85] u[86] u[87] u[88] u[89] r[0] r[1] r[2] r[3] r[4]
 r[5] r[6] r[7] r[8] r[9] r[10] r[11] r[12] r[13] r[14] r[15] r[16] r[17]
 r[18] r[19] r[20] r[21] r[22] r[23] r[24] r[25] r[26] r[27] r[28] r[29]
 r[30] r[31] r[32] r[33] r[34] r[35] r[36] r[37] r[38] r[39] r[40] r[41]
 r[42] r[43] r[44] r[45] r[46] r[47] r[48] r[49] r[50] r[51] r[52] r[53]
 r[54] r[55] r[56] r[57] r[58] r[59] r[60] r[61] r[62] r[63] r[64] r[65]
 r[66] r[67] r[68] r[69] r[70] r[71] r[72] r[73] r[74] r[75] r[76] r[77]
 r[78] r[79] r[80] r[81] r[82] r[83] r[84] r[85] r[86] r[87] r[88] r[89]
End
