instances/knapsack/discrete/knapsack_90_2.kp
98005
90
391

55 5.5 52
68 6.8 48
30 3.0 18
51 5.1 46
8 0.8 47
37 3.7 71
13 1.3 31
47 4.7 77
53 5.3 68
10 1.0 92
15 1.5 73
75 7.5 53
92 9.2 69
40 4.0 48
20 2.0 89
36 3.6 14
93 9.3 76
8 0.8 96
89 8.9 8
46 4.6 7
25 2.5 75
27 2.7 29
4 0.4 90
2 0.2 2
100 10.0 23
92 9.2 56
38 3.8 94
11 1.1 53
29 2.9 8
71 7.1 98
61 6.1 39
91 9.1 94
11 1.1 6
69 6.9 29
48 4.8 29
5 0.5 11
52 5.2 95
96 9.6 1
80 8.0 68
6 0.6 9
59 5.9 82
57 5.7 99
86 8.6 35
29 2.9 61
79 7.9 24
62 6.2 77
21 2.1 66
65 6.5 26
31 3.1 70
48 4.8 7
90 9.0 53
88 8.8 52
73 7.3 37
100 10.0 75
28 2.8 54
87 8.7 4
13 1.3 48
14 1.4 14
80 8.0 94
74 7.4 41
32 3.2 54
2 0.2 16
59 5.9 87
22 2.2 63
31 3.1 56
20 2.0 79
4 0.4 27
18 1.8 27
16 1.6 90
57 5.7 43
45 4.5 83
93 9.3 13
10 1.0 43
3 0.3 11
35 3.5 80
92 9.2 36
50 5.0 4
87 8.7 43
32 3.2 78
66 6.6 61
45 4.5 37
33 3.3 32
14 1.4 51
9 0.9 100
49 4.9 31
21 2.1 62
23 2.3 88
24 2.4 21
42 4.2 2
87 8.7 56

50325
480

[0.9557828908821323 2.8534674502748594 3.570704446796623 3.5008469863826175 1.3321092905068284 0.5577335217158517 4.718509738651257 2.9351062403526074 2.4204504605788983 4.721946185610868 5.227487569980852 3.531324843389309 2.1113070561821914 1.7438624309344295 0.4494524029048475 3.8631206126025424 5.003561990845224 4.296542489153621 0.5301763840102325 3.4467785109424964 1.9135067063129565 5.039287535607734 1.142638253447582 0.051906289291627175 3.80849881224958 0.7414304073885335 0.3139628599050752 1.0096787889554517 4.274085961716246 0.9465030898867367 3.4908335851387844 5.236186320587629 0.6039269383513091 0.3498130032683644 1.7036424878866576 3.220758086846619 0.1597511879825332 0.8431878286444601 3.3880391263199905 3.7879795801919602 3.076477423323806 1.9451470058534959 5.057300147541916 3.008259626840161 4.929727094239517 0.8948129024263191 4.055991241141456 3.285914580139409 2.4571136962968945 1.595945208219851 2.4463543170582183 4.124142212777858 4.012606699094977 0.8428275549083335 3.147233060372802 1.6796627179019137 4.434011351508646 0.7627323447783271 2.1145058853180303 3.67822571208952 2.3805566765565134 4.335177963271707 3.685959464349705 1.6632907587608323 5.241295966072881 3.661756744512319 0.5113197093854254 3.2307981235244005 3.115203841448866 5.127482579796725 0.9778487376633992 2.2781474477238803 3.316365192413708 0.501519024027111 4.426723023944419 3.3561006969633493 3.838862271729477 0.5288879319073173 3.5594638185364404 0.10039050344794849 1.9349411447546196 2.623686029882804 0.797063004466602 2.3730625661032816 1.1345307994740843 4.267316882492336 1.2400357247109608 0.043753970388438646 3.727979456623091 2.4025770328756857]

[75 24 38 55 40 65 97 99 37 66 79 35 72 56 84 68 73 16 97 46 93 31 28 82 60 44 86 31 53 11 61 83 47 61 52 49 96 68 48 42 95 77 98 45 15 62 45 21 23 28 6 96 61 12 72 79 37 66 44 10 12 86 31 94 91 92 36 2 20 89 61 69 38 67 59 44 38 87 100 42 69 5 46 45 93 29 95 56 34 75]
